N = 8;
Capacity = 4;
ItemsPerCustomer = [4, 5, 3, 4, 3, 6, 2, 8];
maxItemsPerCustomer = 8;
binCapacity = 50;
SizesOfItems = [|
  34, 24, 23, 17, 0, 0, 0, 0
| 33, 28, 27, 22, 19, 0, 0, 0
| 40, 16, 15, 0, 0, 0, 0, 0
| 34, 33, 24, 16, 0, 0, 0, 0
| 50, 50, 50, 0, 0, 0, 0, 0
| 38, 33, 33, 30, 22, 13, 0, 0
| 26, 10, 0, 0, 0, 0, 0, 0
| 38, 32, 29, 23, 20, 14, 11, 10
|];
Distance = [|
  0, 50, 54, 53, 42, 16, 16, 63, 61
| 50, 0, 70, 84, 81, 48, 34, 28, 35
| 54, 70, 0, 106, 36, 38, 53, 96, 100
| 53, 84, 106, 0, 84, 69, 62, 78, 70
| 42, 81, 36, 84, 0, 34, 51, 102, 101
| 16, 48, 38, 69, 34, 0, 18, 68, 68
| 16, 34, 53, 62, 51, 18, 0, 50, 50
| 63, 28, 96, 78, 102, 68, 50, 0, 10
| 61, 35, 100, 70, 101, 68, 50, 10, 0
|];
